K = 5;

P = [ 31 90 12 53 38 ];

R = [ 12 45 38 15 41 ];

A = [ 5 6 6 6 2 ];

C = [ 5 3 9 6 6 ];

N = 10;

M = [
[ 0 28 26 18 47 21 19 21 38 2 ]
[ 28 0 29 34 24 46 36 25 16 25 ]
[ 26 29 0 6 12 26 41 25 7 50 ]
[ 18 34 6 0 10 25 23 30 47 3 ]
[ 47 24 12 10 0 22 12 16 44 40 ]
[ 21 46 26 25 22 0 16 45 33 42 ]
[ 19 36 41 23 12 16 0 41 40 48 ]
[ 21 25 25 30 16 45 41 0 37 19 ]
[ 38 16 7 47 44 33 40 37 0 34 ]
[ 2 25 50 3 40 42 48 19 34 0 ]
 ];

